tsp_instances/TSP20/instance17.tsp
NODE_COORD_SECTION
0 8 49
1 49 197
2 188 146
3 26 71
4 84 132
5 114 4
6 146 121
7 23 196
8 178 80
9 45 183
10 103 169
11 43 13
12 31 193
13 188 20
14 182 150
15 2 0
16 17 103
17 178 85
18 25 41
19 78 166
