tsp_instances/TSP20/instance17.opt.tour
TOUR_SECTION
1
4
17
8
13
2
10
20
11
5
7
15
3
18
9
14
6
12
16
19
-1